####################Label of System#################### 
             
SystemName nome     
SystemLabel nome

#######################################################

####################Input Parameters####################        

NumberOfAtoms 10
NumberOfSpecies 2

%block ChemicalSpeciesLabel     
# Atomic_Index Atomic_Number Atomic_Symbol
# Example: 1 6 C 

%endblock ChemicalSpeciesLabel

#Use only for needed species, like Li, Na, K...
#%block PAO.Polarization.Scheme
# Atomic_Symbol Polarization_Scheme
# Example: Li non-perturbative

#%endblock PAO.Polarization.Scheme
    
########################################################

####################Structural Informations####################

#Format of the atomic coordinates input: Ang (Angstroms), Fractional (Fractional coordinates)
AtomicCoordinatesFormat Ang 
#Format of the atomic coordinates output: Ang (Angstroms), Fractional (Fractional coordinates)
AtomCoorFormatOut Ang
#Atomic origin of the system.
AtomicCoordinatesOrigin 0.0 0.0 0.0

#Type of movement for the unitary cell: True (Cell can move), False (Cell is fixed)
MD.VariableCell True

#Constrain atoms or/and cell-vectors:
%block Geometry.Constraints
# Examples
# 1- Constrain all Carbon atoms: Z 6
# 2- Constrain the cell-vector c: cell-vector c
# 3- Constrain the movement of one atom in the z-direction: atom 1 0. 0. 1.

%endblock Geometry.Constraints

#Type of dipole correction: True (Dipole correction on), False (Dipole correction off)
#Use this in case of adsorption
Slab.DipoleCorrection True  

#Cell vectors of the system
LatticeConstant 1.00 Ang
%block LatticeVectors

%endblock LatticeVectors

#Atomic coordinates, depends on the input format choice (Ang or Fractional)
%block AtomicCoordinatesAndAtomicSpecies
# Position_x Position_y Position_z Atomic_Index Atomic_Number Atomic_Symbol
# Example: 0.000000 0.000000 0.000000 1 10 C

%endblock AtomicCoordinatesAndAtomicSpecies

###############################################################

####################Theoretical Informations####################

################################################################
    